p cnf 22 11
e 1 2 3 4 5 6 0
a 7 8 9 10 11 0
e 12 0
a 13 14 0
e 15 0
a 16 17 0
e 18 0
a 19 20 0
e 21 22 0
2 -3 7 12 0
-4 -12 13 3 -10 0
17 -1 -2 0
-15 14 -20 9 16 0
-1 -7 0
-14 5 -2 -8 10 0
-4 -10 -16 15 -3 0
-1 12 -7 -17 0
-11 -22 18 4 17 0
17 13 15 -14 -7 0
9 8 0
